Minimize
	value: tt

Subject to
tt + 1024 s_1_1 > 0.0
tt - t_1_1 - 1025.371232 s_1_1 + 1.371232 s_1_6 > -1023.321589
tt + 1024 s_2_1 > 0.0
tt - t_2_1 - 1025.683165 s_2_1 + 1.683165 s_2_6 > -1021.268974
tt + 1024 s_1_2 > 0.0
tt - t_1_2 - 1025.371232 s_1_2 + 1.371232 s_1_7 > -1023.196778
tt + 1024 s_2_2 > 0.0
tt - t_2_2 - 1025.683165 s_2_2 + 1.683165 s_2_7 > -1021.248712
tt + 1024 s_1_3 > 0.0
tt - t_1_3 - 1025.371232 s_1_3 + 1.371232 s_1_7 > -1022.986197
tt + 1024 s_2_3 > 0.0
tt - t_2_3 - 1025.683165 s_2_3 + 1.683165 s_2_7 > -1020.233802
tt + 1024 s_1_4 > 0.0
tt - t_1_4 - 1026.742464 s_1_4 + 2.742464 s_1_7 > -1023.437300
tt + 1024 s_2_4 > 0.0
tt - t_2_4 - 1027.366331 s_2_4 + 3.366331 s_2_7 > -1021.274772
tt + 1024 s_1_5 > 0.0
tt - t_1_5 - 1028.113696 s_1_5 + 4.113696 s_1_6 > -1023.493022
tt + 1024 s_2_5 > 0.0
tt - t_2_5 - 1029.049496 s_2_5 + 5.049496 s_2_6 > -1021.810923
tt + 1024 s_1_6 > 0.0
tt - t_1_6 - 1024.000000 s_1_6 > -1021.760194
tt + 1024 s_2_6 > 0.0
tt - t_2_6 - 1024.000000 s_2_6 > -1015.176869
tt + 1024 s_1_7 > 0.0
tt - t_1_7 - 1024.000000 s_1_7 > -1022.955389
tt + 1024 s_2_7 > 0.0
tt - t_2_7 - 1024.000000 s_2_7 > -1021.639619
tt + 1024 s_1_8 > 0.0
tt - t_1_8 - 1041.140400 s_1_8 + 17.140400 s_1_1 > -1023.839700
tt + 1024 s_2_8 > 0.0
tt - t_2_8 - 1045.039568 s_2_8 + 21.039568 s_2_1 > -1022.165800
s_1_1 + s_2_1  = 1
s_1_2 + s_2_2  = 1
s_1_3 + s_2_3  = 1
s_1_4 + s_2_4  = 1
s_1_5 + s_2_5  = 1
s_1_6 + s_2_6  = 1
s_1_7 + s_2_7  = 1
s_1_8 + s_2_8  = 1
s_1_1 + s_1_2 + 1024 r_1_1_2 >= 2
- s_1_1 - s_1_2 - 1024 r_1_1_2 >= -1025
t_1_1 - t_1_2 - 1024.000000 u_1_1_2 - 1.371232 s_1_2 + 1.371232 s_1_7 + 2048.000000 r_1_1_2 > -1023.196778
s_2_1 + s_2_2 + 1024 r_2_1_2 >= 2
- s_2_1 - s_2_2 - 1024 r_2_1_2 >= -1025
t_2_1 - t_2_2 - 1024.000000 u_2_1_2 - 1.683165 s_2_2 + 1.683165 s_2_7 + 2048.000000 r_2_1_2 > -1021.248712
s_1_1 + s_1_3 + 1024 r_1_1_3 >= 2
- s_1_1 - s_1_3 - 1024 r_1_1_3 >= -1025
t_1_1 - t_1_3 - 1024.000000 u_1_1_3 - 1.371232 s_1_3 + 1.371232 s_1_7 + 2048.000000 r_1_1_3 > -1022.986197
s_2_1 + s_2_3 + 1024 r_2_1_3 >= 2
- s_2_1 - s_2_3 - 1024 r_2_1_3 >= -1025
t_2_1 - t_2_3 - 1024.000000 u_2_1_3 - 1.683165 s_2_3 + 1.683165 s_2_7 + 2048.000000 r_2_1_3 > -1020.233802
s_1_1 + s_1_4 + 1024 r_1_1_4 >= 2
- s_1_1 - s_1_4 - 1024 r_1_1_4 >= -1025
t_1_1 - t_1_4 - 1024.000000 u_1_1_4 - 1.371232 s_1_4 + 1.371232 s_1_7 + 2048.000000 r_1_1_4 > -1023.437300
s_2_1 + s_2_4 + 1024 r_2_1_4 >= 2
- s_2_1 - s_2_4 - 1024 r_2_1_4 >= -1025
t_2_1 - t_2_4 - 1024.000000 u_2_1_4 - 1.683165 s_2_4 + 1.683165 s_2_7 + 2048.000000 r_2_1_4 > -1021.274772
s_1_1 + s_1_5 + 1024 r_1_1_5 >= 2
- s_1_1 - s_1_5 - 1024 r_1_1_5 >= -1025
t_1_1 - t_1_5 - 1024.000000 u_1_1_5 - 2.056848 s_1_5 + 2.056848 s_1_6 + 2048.000000 r_1_1_5 > -1023.493022
s_2_1 + s_2_5 + 1024 r_2_1_5 >= 2
- s_2_1 - s_2_5 - 1024 r_2_1_5 >= -1025
t_2_1 - t_2_5 - 1024.000000 u_2_1_5 - 2.524748 s_2_5 + 2.524748 s_2_6 + 2048.000000 r_2_1_5 > -1021.810923
t_1_1 - t_1_6 - 1024.000000 s_1_6 > -1021.760194
t_1_1 - t_2_6 - 1024.000000 s_2_6 > -1015.176869
t_2_1 - t_1_6 - 1024.000000 s_1_6 > -1021.760194
t_2_1 - t_2_6 - 1024.000000 s_2_6 > -1015.176869
s_1_1 + s_1_7 + 1024 r_1_1_7 >= 2
- s_1_1 - s_1_7 - 1024 r_1_1_7 >= -1025
t_1_1 - t_1_7 - 1024.000000 u_1_1_7 + 2048.000000 r_1_1_7 > -1022.955389
s_2_1 + s_2_7 + 1024 r_2_1_7 >= 2
- s_2_1 - s_2_7 - 1024 r_2_1_7 >= -1025
t_2_1 - t_2_7 - 1024.000000 u_2_1_7 + 2048.000000 r_2_1_7 > -1021.639619
t_1_8 - t_1_1 - 2.049643 s_1_1 + 1.371232 s_1_6 > 0.0
t_1_8 - t_2_1 - 4.414191 s_2_1 + 1.683165 s_2_6 > 0.0
t_2_8 - t_1_1 - 2.049643 s_1_1 + 1.371232 s_1_6 > 0.0
t_2_8 - t_2_1 - 4.414191 s_2_1 + 1.683165 s_2_6 > 0.0
s_1_2 + s_1_1 + 1024 r_1_1_2 >= 2
- s_1_2 - s_1_1 - 1024 r_1_1_2 >= -1025
t_1_2 - t_1_1 + 1024.000000 u_1_1_2 - 1.371232 s_1_1 + 1.371232 s_1_6 + 2048.000000 r_1_1_2 > 0.678411
s_2_2 + s_2_1 + 1024 r_2_1_2 >= 2
- s_2_2 - s_2_1 - 1024 r_2_1_2 >= -1025
t_2_2 - t_2_1 + 1024.000000 u_2_1_2 - 1.683165 s_2_1 + 1.683165 s_2_6 + 2048.000000 r_2_1_2 > 2.731026
s_1_2 + s_1_3 + 1024 r_1_2_3 >= 2
- s_1_2 - s_1_3 - 1024 r_1_2_3 >= -1025
t_1_2 - t_1_3 - 1024.000000 u_1_2_3 - 1.371232 s_1_3 + 1.371232 s_1_7 + 2048.000000 r_1_2_3 > -1022.986197
s_2_2 + s_2_3 + 1024 r_2_2_3 >= 2
- s_2_2 - s_2_3 - 1024 r_2_2_3 >= -1025
t_2_2 - t_2_3 - 1024.000000 u_2_2_3 - 1.683165 s_2_3 + 1.683165 s_2_7 + 2048.000000 r_2_2_3 > -1020.233802
s_1_2 + s_1_4 + 1024 r_1_2_4 >= 2
- s_1_2 - s_1_4 - 1024 r_1_2_4 >= -1025
t_1_2 - t_1_4 - 1024.000000 u_1_2_4 - 1.371232 s_1_4 + 1.371232 s_1_7 + 2048.000000 r_1_2_4 > -1023.437300
s_2_2 + s_2_4 + 1024 r_2_2_4 >= 2
- s_2_2 - s_2_4 - 1024 r_2_2_4 >= -1025
t_2_2 - t_2_4 - 1024.000000 u_2_2_4 - 1.683165 s_2_4 + 1.683165 s_2_7 + 2048.000000 r_2_2_4 > -1021.274772
s_1_2 + s_1_5 + 1024 r_1_2_5 >= 2
- s_1_2 - s_1_5 - 1024 r_1_2_5 >= -1025
t_1_2 - t_1_5 - 1024.000000 u_1_2_5 - 2.056848 s_1_5 + 2.056848 s_1_6 + 2048.000000 r_1_2_5 > -1023.493022
s_2_2 + s_2_5 + 1024 r_2_2_5 >= 2
- s_2_2 - s_2_5 - 1024 r_2_2_5 >= -1025
t_2_2 - t_2_5 - 1024.000000 u_2_2_5 - 2.524748 s_2_5 + 2.524748 s_2_6 + 2048.000000 r_2_2_5 > -1021.810923
s_1_2 + s_1_6 + 1024 r_1_2_6 >= 2
- s_1_2 - s_1_6 - 1024 r_1_2_6 >= -1025
t_1_2 - t_1_6 - 1024.000000 u_1_2_6 + 2048.000000 r_1_2_6 > -1021.760194
s_2_2 + s_2_6 + 1024 r_2_2_6 >= 2
- s_2_2 - s_2_6 - 1024 r_2_2_6 >= -1025
t_2_2 - t_2_6 - 1024.000000 u_2_2_6 + 2048.000000 r_2_2_6 > -1015.176869
t_1_2 - t_1_7 - 1024.000000 s_1_7 > -1022.955389
t_1_2 - t_2_7 - 1024.000000 s_2_7 > -1021.639619
t_2_2 - t_1_7 - 1024.000000 s_1_7 > -1022.955389
t_2_2 - t_2_7 - 1024.000000 s_2_7 > -1021.639619
t_1_8 - t_1_2 - 2.174454 s_1_2 + 1.371232 s_1_7 > 0.0
t_1_8 - t_2_2 - 4.434454 s_2_2 + 1.683165 s_2_7 > 0.0
t_2_8 - t_1_2 - 2.174454 s_1_2 + 1.371232 s_1_7 > 0.0
t_2_8 - t_2_2 - 4.434454 s_2_2 + 1.683165 s_2_7 > 0.0
s_1_3 + s_1_1 + 1024 r_1_1_3 >= 2
- s_1_3 - s_1_1 - 1024 r_1_1_3 >= -1025
t_1_3 - t_1_1 + 1024.000000 u_1_1_3 - 1.371232 s_1_1 + 1.371232 s_1_6 + 2048.000000 r_1_1_3 > 0.678411
s_2_3 + s_2_1 + 1024 r_2_1_3 >= 2
- s_2_3 - s_2_1 - 1024 r_2_1_3 >= -1025
t_2_3 - t_2_1 + 1024.000000 u_2_1_3 - 1.683165 s_2_1 + 1.683165 s_2_6 + 2048.000000 r_2_1_3 > 2.731026
s_1_3 + s_1_2 + 1024 r_1_2_3 >= 2
- s_1_3 - s_1_2 - 1024 r_1_2_3 >= -1025
t_1_3 - t_1_2 + 1024.000000 u_1_2_3 - 1.371232 s_1_2 + 1.371232 s_1_7 + 2048.000000 r_1_2_3 > 0.803222
s_2_3 + s_2_2 + 1024 r_2_2_3 >= 2
- s_2_3 - s_2_2 - 1024 r_2_2_3 >= -1025
t_2_3 - t_2_2 + 1024.000000 u_2_2_3 - 1.683165 s_2_2 + 1.683165 s_2_7 + 2048.000000 r_2_2_3 > 2.751288
t_1_4 - t_1_3 - 2.385035 s_1_3 + 1.371232 s_1_7 > 0.0
t_1_4 - t_2_3 - 5.449363 s_2_3 + 1.683165 s_2_7 > 0.0
t_2_4 - t_1_3 - 2.385035 s_1_3 + 1.371232 s_1_7 > 0.0
t_2_4 - t_2_3 - 5.449363 s_2_3 + 1.683165 s_2_7 > 0.0
s_1_3 + s_1_5 + 1024 r_1_3_5 >= 2
- s_1_3 - s_1_5 - 1024 r_1_3_5 >= -1025
t_1_3 - t_1_5 - 1024.000000 u_1_3_5 - 2.056848 s_1_5 + 2.056848 s_1_6 + 2048.000000 r_1_3_5 > -1023.493022
s_2_3 + s_2_5 + 1024 r_2_3_5 >= 2
- s_2_3 - s_2_5 - 1024 r_2_3_5 >= -1025
t_2_3 - t_2_5 - 1024.000000 u_2_3_5 - 2.524748 s_2_5 + 2.524748 s_2_6 + 2048.000000 r_2_3_5 > -1021.810923
s_1_3 + s_1_6 + 1024 r_1_3_6 >= 2
- s_1_3 - s_1_6 - 1024 r_1_3_6 >= -1025
t_1_3 - t_1_6 - 1024.000000 u_1_3_6 + 2048.000000 r_1_3_6 > -1021.760194
s_2_3 + s_2_6 + 1024 r_2_3_6 >= 2
- s_2_3 - s_2_6 - 1024 r_2_3_6 >= -1025
t_2_3 - t_2_6 - 1024.000000 u_2_3_6 + 2048.000000 r_2_3_6 > -1015.176869
t_1_3 - t_1_7 - 1024.000000 s_1_7 > -1022.955389
t_1_3 - t_2_7 - 1024.000000 s_2_7 > -1021.639619
t_2_3 - t_1_7 - 1024.000000 s_1_7 > -1022.955389
t_2_3 - t_2_7 - 1024.000000 s_2_7 > -1021.639619
t_1_8 - t_1_3 - 2.385035 s_1_3 + 1.371232 s_1_7 > 0.0
t_1_8 - t_2_3 - 5.449363 s_2_3 + 1.683165 s_2_7 > 0.0
t_2_8 - t_1_3 - 2.385035 s_1_3 + 1.371232 s_1_7 > 0.0
t_2_8 - t_2_3 - 5.449363 s_2_3 + 1.683165 s_2_7 > 0.0
s_1_4 + s_1_1 + 1024 r_1_1_4 >= 2
- s_1_4 - s_1_1 - 1024 r_1_1_4 >= -1025
t_1_4 - t_1_1 + 1024.000000 u_1_1_4 - 1.371232 s_1_1 + 1.371232 s_1_6 + 2048.000000 r_1_1_4 > 0.678411
s_2_4 + s_2_1 + 1024 r_2_1_4 >= 2
- s_2_4 - s_2_1 - 1024 r_2_1_4 >= -1025
t_2_4 - t_2_1 + 1024.000000 u_2_1_4 - 1.683165 s_2_1 + 1.683165 s_2_6 + 2048.000000 r_2_1_4 > 2.731026
s_1_4 + s_1_2 + 1024 r_1_2_4 >= 2
- s_1_4 - s_1_2 - 1024 r_1_2_4 >= -1025
t_1_4 - t_1_2 + 1024.000000 u_1_2_4 - 1.371232 s_1_2 + 1.371232 s_1_7 + 2048.000000 r_1_2_4 > 0.803222
s_2_4 + s_2_2 + 1024 r_2_2_4 >= 2
- s_2_4 - s_2_2 - 1024 r_2_2_4 >= -1025
t_2_4 - t_2_2 + 1024.000000 u_2_2_4 - 1.683165 s_2_2 + 1.683165 s_2_7 + 2048.000000 r_2_2_4 > 2.751288
s_1_4 + s_1_5 + 1024 r_1_4_5 >= 2
- s_1_4 - s_1_5 - 1024 r_1_4_5 >= -1025
t_1_4 - t_1_5 - 1024.000000 u_1_4_5 - 2.056848 s_1_5 + 2.056848 s_1_6 + 2048.000000 r_1_4_5 > -1023.493022
s_2_4 + s_2_5 + 1024 r_2_4_5 >= 2
- s_2_4 - s_2_5 - 1024 r_2_4_5 >= -1025
t_2_4 - t_2_5 - 1024.000000 u_2_4_5 - 2.524748 s_2_5 + 2.524748 s_2_6 + 2048.000000 r_2_4_5 > -1021.810923
s_1_4 + s_1_6 + 1024 r_1_4_6 >= 2
- s_1_4 - s_1_6 - 1024 r_1_4_6 >= -1025
t_1_4 - t_1_6 - 1024.000000 u_1_4_6 + 2048.000000 r_1_4_6 > -1021.760194
s_2_4 + s_2_6 + 1024 r_2_4_6 >= 2
- s_2_4 - s_2_6 - 1024 r_2_4_6 >= -1025
t_2_4 - t_2_6 - 1024.000000 u_2_4_6 + 2048.000000 r_2_4_6 > -1015.176869
t_1_4 - t_1_7 - 1024.000000 s_1_7 > -1022.955389
t_1_4 - t_2_7 - 1024.000000 s_2_7 > -1021.639619
t_2_4 - t_1_7 - 1024.000000 s_1_7 > -1022.955389
t_2_4 - t_2_7 - 1024.000000 s_2_7 > -1021.639619
t_1_8 - t_1_4 - 1.933932 s_1_4 + 1.371232 s_1_7 > 0.0
t_1_8 - t_2_4 - 4.408394 s_2_4 + 1.683165 s_2_7 > 0.0
t_2_8 - t_1_4 - 1.933932 s_1_4 + 1.371232 s_1_7 > 0.0
t_2_8 - t_2_4 - 4.408394 s_2_4 + 1.683165 s_2_7 > 0.0
s_1_5 + s_1_1 + 1024 r_1_1_5 >= 2
- s_1_5 - s_1_1 - 1024 r_1_1_5 >= -1025
t_1_5 - t_1_1 + 1024.000000 u_1_1_5 - 1.371232 s_1_1 + 1.371232 s_1_6 + 2048.000000 r_1_1_5 > 0.678411
s_2_5 + s_2_1 + 1024 r_2_1_5 >= 2
- s_2_5 - s_2_1 - 1024 r_2_1_5 >= -1025
t_2_5 - t_2_1 + 1024.000000 u_2_1_5 - 1.683165 s_2_1 + 1.683165 s_2_6 + 2048.000000 r_2_1_5 > 2.731026
s_1_5 + s_1_2 + 1024 r_1_2_5 >= 2
- s_1_5 - s_1_2 - 1024 r_1_2_5 >= -1025
t_1_5 - t_1_2 + 1024.000000 u_1_2_5 - 1.371232 s_1_2 + 1.371232 s_1_7 + 2048.000000 r_1_2_5 > 0.803222
s_2_5 + s_2_2 + 1024 r_2_2_5 >= 2
- s_2_5 - s_2_2 - 1024 r_2_2_5 >= -1025
t_2_5 - t_2_2 + 1024.000000 u_2_2_5 - 1.683165 s_2_2 + 1.683165 s_2_7 + 2048.000000 r_2_2_5 > 2.751288
s_1_5 + s_1_3 + 1024 r_1_3_5 >= 2
- s_1_5 - s_1_3 - 1024 r_1_3_5 >= -1025
t_1_5 - t_1_3 + 1024.000000 u_1_3_5 - 1.371232 s_1_3 + 1.371232 s_1_7 + 2048.000000 r_1_3_5 > 1.013803
s_2_5 + s_2_3 + 1024 r_2_3_5 >= 2
- s_2_5 - s_2_3 - 1024 r_2_3_5 >= -1025
t_2_5 - t_2_3 + 1024.000000 u_2_3_5 - 1.683165 s_2_3 + 1.683165 s_2_7 + 2048.000000 r_2_3_5 > 3.766198
s_1_5 + s_1_4 + 1024 r_1_4_5 >= 2
- s_1_5 - s_1_4 - 1024 r_1_4_5 >= -1025
t_1_5 - t_1_4 + 1024.000000 u_1_4_5 - 1.371232 s_1_4 + 1.371232 s_1_7 + 2048.000000 r_1_4_5 > 0.562700
s_2_5 + s_2_4 + 1024 r_2_4_5 >= 2
- s_2_5 - s_2_4 - 1024 r_2_4_5 >= -1025
t_2_5 - t_2_4 + 1024.000000 u_2_4_5 - 1.683165 s_2_4 + 1.683165 s_2_7 + 2048.000000 r_2_4_5 > 2.725228
t_1_5 - t_1_6 - 1024.000000 s_1_6 > -1021.760194
t_1_5 - t_2_6 - 1024.000000 s_2_6 > -1015.176869
t_2_5 - t_1_6 - 1024.000000 s_1_6 > -1021.760194
t_2_5 - t_2_6 - 1024.000000 s_2_6 > -1015.176869
t_1_5 - t_1_7 - 1024.000000 s_1_7 > -1022.955389
t_1_5 - t_2_7 - 1024.000000 s_2_7 > -1021.639619
t_2_5 - t_1_7 - 1024.000000 s_1_7 > -1022.955389
t_2_5 - t_2_7 - 1024.000000 s_2_7 > -1021.639619
t_1_8 - t_1_5 - 2.563826 s_1_5 + 2.056848 s_1_6 > 0.0
t_1_8 - t_2_5 - 4.713826 s_2_5 + 2.524748 s_2_6 > 0.0
t_2_8 - t_1_5 - 2.563826 s_1_5 + 2.056848 s_1_6 > 0.0
t_2_8 - t_2_5 - 4.713826 s_2_5 + 2.524748 s_2_6 > 0.0
s_1_6 + s_1_2 + 1024 r_1_2_6 >= 2
- s_1_6 - s_1_2 - 1024 r_1_2_6 >= -1025
t_1_6 - t_1_2 + 1024.000000 u_1_2_6 - 1.371232 s_1_2 + 1.371232 s_1_7 + 2048.000000 r_1_2_6 > 0.803222
s_2_6 + s_2_2 + 1024 r_2_2_6 >= 2
- s_2_6 - s_2_2 - 1024 r_2_2_6 >= -1025
t_2_6 - t_2_2 + 1024.000000 u_2_2_6 - 1.683165 s_2_2 + 1.683165 s_2_7 + 2048.000000 r_2_2_6 > 2.751288
s_1_6 + s_1_3 + 1024 r_1_3_6 >= 2
- s_1_6 - s_1_3 - 1024 r_1_3_6 >= -1025
t_1_6 - t_1_3 + 1024.000000 u_1_3_6 - 1.371232 s_1_3 + 1.371232 s_1_7 + 2048.000000 r_1_3_6 > 1.013803
s_2_6 + s_2_3 + 1024 r_2_3_6 >= 2
- s_2_6 - s_2_3 - 1024 r_2_3_6 >= -1025
t_2_6 - t_2_3 + 1024.000000 u_2_3_6 - 1.683165 s_2_3 + 1.683165 s_2_7 + 2048.000000 r_2_3_6 > 3.766198
s_1_6 + s_1_4 + 1024 r_1_4_6 >= 2
- s_1_6 - s_1_4 - 1024 r_1_4_6 >= -1025
t_1_6 - t_1_4 + 1024.000000 u_1_4_6 - 1.371232 s_1_4 + 1.371232 s_1_7 + 2048.000000 r_1_4_6 > 0.562700
s_2_6 + s_2_4 + 1024 r_2_4_6 >= 2
- s_2_6 - s_2_4 - 1024 r_2_4_6 >= -1025
t_2_6 - t_2_4 + 1024.000000 u_2_4_6 - 1.683165 s_2_4 + 1.683165 s_2_7 + 2048.000000 r_2_4_6 > 2.725228
s_1_6 + s_1_7 + 1024 r_1_6_7 >= 2
- s_1_6 - s_1_7 - 1024 r_1_6_7 >= -1025
t_1_6 - t_1_7 - 1024.000000 u_1_6_7 + 2048.000000 r_1_6_7 > -1022.955389
s_2_6 + s_2_7 + 1024 r_2_6_7 >= 2
- s_2_6 - s_2_7 - 1024 r_2_6_7 >= -1025
t_2_6 - t_2_7 - 1024.000000 u_2_6_7 + 2048.000000 r_2_6_7 > -1021.639619
s_1_7 + s_1_1 + 1024 r_1_1_7 >= 2
- s_1_7 - s_1_1 - 1024 r_1_1_7 >= -1025
t_1_7 - t_1_1 + 1024.000000 u_1_1_7 - 1.371232 s_1_1 + 1.371232 s_1_6 + 2048.000000 r_1_1_7 > 0.678411
s_2_7 + s_2_1 + 1024 r_2_1_7 >= 2
- s_2_7 - s_2_1 - 1024 r_2_1_7 >= -1025
t_2_7 - t_2_1 + 1024.000000 u_2_1_7 - 1.683165 s_2_1 + 1.683165 s_2_6 + 2048.000000 r_2_1_7 > 2.731026
s_1_7 + s_1_6 + 1024 r_1_6_7 >= 2
- s_1_7 - s_1_6 - 1024 r_1_6_7 >= -1025
t_1_7 - t_1_6 + 1024.000000 u_1_6_7 + 2048.000000 r_1_6_7 > 2.239806
s_2_7 + s_2_6 + 1024 r_2_6_7 >= 2
- s_2_7 - s_2_6 - 1024 r_2_6_7 >= -1025
t_2_7 - t_2_6 + 1024.000000 u_2_6_7 + 2048.000000 r_2_6_7 > 8.823131
Binary
s_1_1
s_2_1
s_1_2
s_2_2
s_1_3
s_2_3
s_1_4
s_2_4
s_1_5
s_2_5
s_1_6
s_2_6
s_1_7
s_2_7
s_1_8
s_2_8
u_1_1_2
r_1_1_2
u_2_1_2
r_2_1_2
u_1_1_3
r_1_1_3
u_2_1_3
r_2_1_3
u_1_1_4
r_1_1_4
u_2_1_4
r_2_1_4
u_1_1_5
r_1_1_5
u_2_1_5
r_2_1_5
u_1_1_7
r_1_1_7
u_2_1_7
r_2_1_7
u_1_2_3
r_1_2_3
u_2_2_3
r_2_2_3
u_1_2_4
r_1_2_4
u_2_2_4
r_2_2_4
u_1_2_5
r_1_2_5
u_2_2_5
r_2_2_5
u_1_2_6
r_1_2_6
u_2_2_6
r_2_2_6
u_1_3_5
r_1_3_5
u_2_3_5
r_2_3_5
u_1_3_6
r_1_3_6
u_2_3_6
r_2_3_6
u_1_4_5
r_1_4_5
u_2_4_5
r_2_4_5
u_1_4_6
r_1_4_6
u_2_4_6
r_2_4_6
u_1_6_7
r_1_6_7
u_2_6_7
r_2_6_7

End
